p tw 64 72
1 2
2 13
3 4
3 43
4 5
5 6
6 7
7 8
8 9
9 10
10 11
11 12
12 14
12 23
13 24
14 15
14 53
15 16
16 17
16 19
17 18
18 53
19 20
20 21
20 53
21 22
22 53
23 25
24 35
25 26
26 27
27 28
28 29
28 30
29 60
30 31
31 32
31 53
32 33
33 34
33 37
34 36
35 46
36 37
37 38
38 39
39 40
40 41
41 42
42 53
43 44
44 45
45 47
45 51
46 57
47 48
48 49
49 50
50 60
51 52
52 60
53 54
54 55
55 56
56 58
57 62
58 59
59 60
60 61
62 63
63 64
64 3
